1411
93 83 68 7 9 43 80 34 13 58 48 15 18 29 73 57 97 59 90 45 10 95 54 86 21 82 3 94 56 92 98 37 61 35 32 4 41 55 17 38 16 20 39 22 27 5 81 51 62 74 40 50 96 85 65 33 14 24 12 84 78 30 99 69 64 60 63 19 47 72 1 88 28 6 11 26 91 52 46 76 66 8 87 44 70 77 49 67 23 79 42 25 89 75 36 71 31 53 2 
